 &SEWARD  &END
Expert
Finite
symmetry
x y z 
basis set
F.....  / inline
    9      3
NUMS0
EXPS0
CONT0
*  p-type ANO's (max 7 functions can be used)
NUMS1
EXPS1
CONT1
*  d-type ANO's (max 4 functions can be used)
NUMS2
EXPS2
CONT2
*  f-type ANO's, max 6 functions can be used
NUMS3
EXPS3
CONT3
F 0 0 0  
end of basis

 &GUESSORB &END
sThr
 0.0d0
tThr
 1.0d12
End of Input

 &RASSCF &END
Title
 F
Symmetry
 5
Spin 
 2
nActEl
 5 0 0
Inactive
 2 0 0 0 0 0 0 0
Ras2    
 0 2 2 0 2 0 0 0
Lumorb
*JobIph
THRS
1.0e-08 1.0e-04 1.0e-04
Levshft
 0.5
ITERation
200 50
CIMX
 48
CIROOT
 1 1
 1
End of input
&CASPT2
 &RASSCF &END
Title
 F
Symmetry
 1
Spin 
 1
nActEl
 6 0 0
Inactive
 2 0 0 0 0 0 0 0
Ras2    
 0 2 2 0 2 0 0 0
Lumorb
*JobIph
THRS
1.0e-08 1.0e-04 1.0e-04
Levshft
 0.5
ITERation
200 50
CIMX
 48
CIROOT
 1 1
 1
End of input
&CASPT2

