 &gateway
expert
finite
*noguess
 basis set
Fe.....  / inline
    26      5
NUMS0
EXPS0
CONT0
*  p-type ANO's (max 7 functions can be used)
NUMS1
EXPS1
CONT1
*  d-type ANO's (max 4 functions can be used)
NUMS2
EXPS2
CONT2
*  f-type ANO's, max 6 functions can be used
NUMS3
EXPS3
CONT3
*  g-type ANO's, max 4 functions can be used
NUMS4
EXPS4
CONT4
*  h-type ANO's, max 2 functions can be used
NUMS5
EXPS5
CONT5
Fe 0 0 0  
end of basis
SYMM=xyz
DK2H
RICD 

&seward
noguess

>>COPY  /home/dzemail/Desktop/Code_Projects/PHD_work/ML_EXP/python_implementation/Source/Fe.RasOrb INPORB


&RASSCF
RASSCF = 0 0
fileorb = INPORB
NACTEL   = 8 0 0
Spin     = 5 
&CASPT2
