<Molecule>
Be1
 &gateway
expert
 basis set
Be.....  / inline
    4      2
NUMS0
EXPS0
CONT0
*  p-type ANO's (max 7 functions can be used)
NUMS1
EXPS1
CONT1
*  d-type ANO's (max 4 functions can be used)
NUMS2
EXPS2
CONT2
Be 0 0 0  
end of basis
</Molecule>
<Method>
 rasscf
 &seward

 &rasscf
 inactive
 0
 ras2
 9
 charge
 0
 &caspt2
</Method>
<Method>
 rasscf1
 &seward

 &rasscf
 inactive
 0
 ras2
 9
 charge
 0
 &caspt2
</Method>
<Method>
 rasscf2
 &seward

 &rasscf
 inactive
 0
 ras2
 9
 charge
 0
 &caspt2
</Method>
